data/lp_files/pEFS/69_1.lp
\ Model foo
\ LP format - for model browsing. Use MPS format to capture full model detail.
Minimize
  z
Subject To
 allocateEach[1]: x[1,1] + x[2,1] + x[3,1] + x[4,1] = 1
 allocateEach[2]: x[1,2] + x[2,2] + x[3,2] + x[4,2] = 1
 allocateEach[3]: x[1,3] + x[2,3] + x[3,3] + x[4,3] = 1
 allocateEach[4]: x[1,4] + x[2,4] + x[3,4] + x[4,4] = 1
 allocateEach[5]: x[1,5] + x[2,5] + x[3,5] + x[4,5] = 1
 allocateEach[6]: x[1,6] + x[2,6] + x[3,6] + x[4,6] = 1
 allocateEach[7]: x[1,7] + x[2,7] + x[3,7] + x[4,7] = 1
 allocateEach[8]: x[1,8] + x[2,8] + x[3,8] + x[4,8] = 1
 allocateEach[9]: x[1,9] + x[2,9] + x[3,9] + x[4,9] = 1
 allocateAllCash: cashProportion[1] + cashProportion[2] + cashProportion[3]
   + cashProportion[4] = 1
 findWorstP[1,2]: z + 0.0222251855802996 cashProportion[1]
   - 0.0222251855802996 cashProportion[2] + 0.1969818197981953 x[1,1]
   + 0.149331021914033 x[1,2] + 0.1231053029292795 x[1,3]
   + 0.0389829755078455 x[1,4] + 0.0445614970885007 x[1,5]
   + 0.1620882784371249 x[1,6] + 0.1383295550517847 x[1,7]
   + 0.0381161932702138 x[1,8] + 0.086278170422723 x[1,9]
   - 0.1969818197981953 x[2,1] - 0.149331021914033 x[2,2]
   - 0.1231053029292795 x[2,3] - 0.0389829755078455 x[2,4]
   - 0.0445614970885007 x[2,5] - 0.1620882784371249 x[2,6]
   - 0.1383295550517847 x[2,7] - 0.0381161932702138 x[2,8]
   - 0.086278170422723 x[2,9] >= 0
 findWorstP[1,3]: z + 0.0222251855802996 cashProportion[1]
   - 0.0222251855802996 cashProportion[3] + 0.1969818197981953 x[1,1]
   + 0.149331021914033 x[1,2] + 0.1231053029292795 x[1,3]
   + 0.0389829755078455 x[1,4] + 0.0445614970885007 x[1,5]
   + 0.1620882784371249 x[1,6] + 0.1383295550517847 x[1,7]
   + 0.0381161932702138 x[1,8] + 0.086278170422723 x[1,9]
   - 0.1969818197981953 x[3,1] - 0.149331021914033 x[3,2]
   - 0.1231053029292795 x[3,3] - 0.0389829755078455 x[3,4]
   - 0.0445614970885007 x[3,5] - 0.1620882784371249 x[3,6]
   - 0.1383295550517847 x[3,7] - 0.0381161932702138 x[3,8]
   - 0.086278170422723 x[3,9] >= 0
 findWorstP[1,4]: z + 0.0222251855802996 cashProportion[1]
   - 0.0222251855802996 cashProportion[4] + 0.1969818197981953 x[1,1]
   + 0.149331021914033 x[1,2] + 0.1231053029292795 x[1,3]
   + 0.0389829755078455 x[1,4] + 0.0445614970885007 x[1,5]
   + 0.1620882784371249 x[1,6] + 0.1383295550517847 x[1,7]
   + 0.0381161932702138 x[1,8] + 0.086278170422723 x[1,9]
   - 0.1969818197981953 x[4,1] - 0.149331021914033 x[4,2]
   - 0.1231053029292795 x[4,3] - 0.0389829755078455 x[4,4]
   - 0.0445614970885007 x[4,5] - 0.1620882784371249 x[4,6]
   - 0.1383295550517847 x[4,7] - 0.0381161932702138 x[4,8]
   - 0.086278170422723 x[4,9] >= 0
 findWorstP[2,1]: z - 0.0176678445229682 cashProportion[1]
   + 0.0176678445229682 cashProportion[2] - 0.1523144876325088 x[1,1]
   - 0.1340989399293286 x[1,2] - 0.0710777385159011 x[1,3]
   - 0.1534452296819788 x[1,4] - 0.1219434628975265 x[1,5]
   - 0.0867314487632509 x[1,6] - 0.1382332155477032 x[1,7]
   - 0.0689222614840989 x[1,8] - 0.055565371024735 x[1,9]
   + 0.1523144876325088 x[2,1] + 0.1340989399293286 x[2,2]
   + 0.0710777385159011 x[2,3] + 0.1534452296819788 x[2,4]
   + 0.1219434628975265 x[2,5] + 0.0867314487632509 x[2,6]
   + 0.1382332155477032 x[2,7] + 0.0689222614840989 x[2,8]
   + 0.055565371024735 x[2,9] >= 0
 findWorstP[2,3]: z + 0.0176678445229682 cashProportion[2]
   - 0.0176678445229682 cashProportion[3] + 0.1523144876325088 x[2,1]
   + 0.1340989399293286 x[2,2] + 0.0710777385159011 x[2,3]
   + 0.1534452296819788 x[2,4] + 0.1219434628975265 x[2,5]
   + 0.0867314487632509 x[2,6] + 0.1382332155477032 x[2,7]
   + 0.0689222614840989 x[2,8] + 0.055565371024735 x[2,9]
   - 0.1523144876325088 x[3,1] - 0.1340989399293286 x[3,2]
   - 0.0710777385159011 x[3,3] - 0.1534452296819788 x[3,4]
   - 0.1219434628975265 x[3,5] - 0.0867314487632509 x[3,6]
   - 0.1382332155477032 x[3,7] - 0.0689222614840989 x[3,8]
   - 0.055565371024735 x[3,9] >= 0
 findWorstP[2,4]: z + 0.0176678445229682 cashProportion[2]
   - 0.0176678445229682 cashProportion[4] + 0.1523144876325088 x[2,1]
   + 0.1340989399293286 x[2,2] + 0.0710777385159011 x[2,3]
   + 0.1534452296819788 x[2,4] + 0.1219434628975265 x[2,5]
   + 0.0867314487632509 x[2,6] + 0.1382332155477032 x[2,7]
   + 0.0689222614840989 x[2,8] + 0.055565371024735 x[2,9]
   - 0.1523144876325088 x[4,1] - 0.1340989399293286 x[4,2]
   - 0.0710777385159011 x[4,3] - 0.1534452296819788 x[4,4]
   - 0.1219434628975265 x[4,5] - 0.0867314487632509 x[4,6]
   - 0.1382332155477032 x[4,7] - 0.0689222614840989 x[4,8]
   - 0.055565371024735 x[4,9] >= 0
 findWorstP[3,1]: z - 0.0270745904968187 cashProportion[1]
   + 0.0270745904968187 cashProportion[3] - 0.2201434953296331 x[1,1]
   - 0.2079057804250711 x[1,2] - 0.0204413158250981 x[1,3]
   - 0.00587518613780967 x[1,4] - 0.1837010965209151 x[1,5]
   - 0.2091512115879247 x[1,6] - 0.00974685257885474 x[1,7]
   - 0.1045891430892108 x[1,8] - 0.0113713280086639 x[1,9]
   + 0.2201434953296331 x[3,1] + 0.2079057804250711 x[3,2]
   + 0.0204413158250981 x[3,3] + 0.00587518613780967 x[3,4]
   + 0.1837010965209151 x[3,5] + 0.2091512115879247 x[3,6]
   + 0.00974685257885474 x[3,7] + 0.1045891430892108 x[3,8]
   + 0.0113713280086639 x[3,9] >= 0
 findWorstP[3,2]: z - 0.0270745904968187 cashProportion[2]
   + 0.0270745904968187 cashProportion[3] - 0.2201434953296331 x[2,1]
   - 0.2079057804250711 x[2,2] - 0.0204413158250981 x[2,3]
   - 0.00587518613780967 x[2,4] - 0.1837010965209151 x[2,5]
   - 0.2091512115879247 x[2,6] - 0.00974685257885474 x[2,7]
   - 0.1045891430892108 x[2,8] - 0.0113713280086639 x[2,9]
   + 0.2201434953296331 x[3,1] + 0.2079057804250711 x[3,2]
   + 0.0204413158250981 x[3,3] + 0.00587518613780967 x[3,4]
   + 0.1837010965209151 x[3,5] + 0.2091512115879247 x[3,6]
   + 0.00974685257885474 x[3,7] + 0.1045891430892108 x[3,8]
   + 0.0113713280086639 x[3,9] >= 0
 findWorstP[3,4]: z + 0.0270745904968187 cashProportion[3]
   - 0.0270745904968187 cashProportion[4] + 0.2201434953296331 x[3,1]
   + 0.2079057804250711 x[3,2] + 0.0204413158250981 x[3,3]
   + 0.00587518613780967 x[3,4] + 0.1837010965209151 x[3,5]
   + 0.2091512115879247 x[3,6] + 0.00974685257885474 x[3,7]
   + 0.1045891430892108 x[3,8] + 0.0113713280086639 x[3,9]
   - 0.2201434953296331 x[4,1] - 0.2079057804250711 x[4,2]
   - 0.0204413158250981 x[4,3] - 0.00587518613780967 x[4,4]
   - 0.1837010965209151 x[4,5] - 0.2091512115879247 x[4,6]
   - 0.00974685257885474 x[4,7] - 0.1045891430892108 x[4,8]
   - 0.0113713280086639 x[4,9] >= 0
 findWorstP[4,1]: z - 0.018152114721365 cashProportion[1]
   + 0.018152114721365 cashProportion[4] - 0.1021964058812852 x[1,1]
   - 0.149228535124342 x[1,2] - 0.1454891994917408 x[1,3]
   - 0.1372844436376838 x[1,4] - 0.06409511708114 x[1,5]
   - 0.1336177164639681 x[1,6] - 0.058177527681975 x[1,7]
   - 0.0632419676892358 x[1,8] - 0.1285169722272645 x[1,9]
   + 0.1021964058812852 x[4,1] + 0.149228535124342 x[4,2]
   + 0.1454891994917408 x[4,3] + 0.1372844436376838 x[4,4]
   + 0.06409511708114 x[4,5] + 0.1336177164639681 x[4,6]
   + 0.058177527681975 x[4,7] + 0.0632419676892358 x[4,8]
   + 0.1285169722272645 x[4,9] >= 0
 findWorstP[4,2]: z - 0.018152114721365 cashProportion[2]
   + 0.018152114721365 cashProportion[4] - 0.1021964058812852 x[2,1]
   - 0.149228535124342 x[2,2] - 0.1454891994917408 x[2,3]
   - 0.1372844436376838 x[2,4] - 0.06409511708114 x[2,5]
   - 0.1336177164639681 x[2,6] - 0.058177527681975 x[2,7]
   - 0.0632419676892358 x[2,8] - 0.1285169722272645 x[2,9]
   + 0.1021964058812852 x[4,1] + 0.149228535124342 x[4,2]
   + 0.1454891994917408 x[4,3] + 0.1372844436376838 x[4,4]
   + 0.06409511708114 x[4,5] + 0.1336177164639681 x[4,6]
   + 0.058177527681975 x[4,7] + 0.0632419676892358 x[4,8]
   + 0.1285169722272645 x[4,9] >= 0
 findWorstP[4,3]: z - 0.018152114721365 cashProportion[3]
   + 0.018152114721365 cashProportion[4] - 0.1021964058812852 x[3,1]
   - 0.149228535124342 x[3,2] - 0.1454891994917408 x[3,3]
   - 0.1372844436376838 x[3,4] - 0.06409511708114 x[3,5]
   - 0.1336177164639681 x[3,6] - 0.058177527681975 x[3,7]
   - 0.0632419676892358 x[3,8] - 0.1285169722272645 x[3,9]
   + 0.1021964058812852 x[4,1] + 0.149228535124342 x[4,2]
   + 0.1454891994917408 x[4,3] + 0.1372844436376838 x[4,4]
   + 0.06409511708114 x[4,5] + 0.1336177164639681 x[4,6]
   + 0.058177527681975 x[4,7] + 0.0632419676892358 x[4,8]
   + 0.1285169722272645 x[4,9] >= 0
Bounds
 z <= 1
 -infinity <= cashProportion[1] <= 1
 -infinity <= cashProportion[2] <= 1
 -infinity <= cashProportion[3] <= 1
 -infinity <= cashProportion[4] <= 1
Binaries
 x[1,1] x[1,2] x[1,3] x[1,4] x[1,5] x[1,6] x[1,7] x[1,8] x[1,9] x[2,1]
 x[2,2] x[2,3] x[2,4] x[2,5] x[2,6] x[2,7] x[2,8] x[2,9] x[3,1] x[3,2]
 x[3,3] x[3,4] x[3,5] x[3,6] x[3,7] x[3,8] x[3,9] x[4,1] x[4,2] x[4,3]
 x[4,4] x[4,5] x[4,6] x[4,7] x[4,8] x[4,9]
End
