data/mps_files/pEFS/69_1.mps
NAME foo
ROWS
 N  OBJ
 E  allocateEach[1]
 E  allocateEach[2]
 E  allocateEach[3]
 E  allocateEach[4]
 E  allocateEach[5]
 E  allocateEach[6]
 E  allocateEach[7]
 E  allocateEach[8]
 E  allocateEach[9]
 E  allocateAllCash
 G  findWorstP[1,2]
 G  findWorstP[1,3]
 G  findWorstP[1,4]
 G  findWorstP[2,1]
 G  findWorstP[2,3]
 G  findWorstP[2,4]
 G  findWorstP[3,1]
 G  findWorstP[3,2]
 G  findWorstP[3,4]
 G  findWorstP[4,1]
 G  findWorstP[4,2]
 G  findWorstP[4,3]
COLUMNS
    z         OBJ       1
    z         findWorstP[1,2]  1
    z         findWorstP[1,3]  1
    z         findWorstP[1,4]  1
    z         findWorstP[2,1]  1
    z         findWorstP[2,3]  1
    z         findWorstP[2,4]  1
    z         findWorstP[3,1]  1
    z         findWorstP[3,2]  1
    z         findWorstP[3,4]  1
    z         findWorstP[4,1]  1
    z         findWorstP[4,2]  1
    z         findWorstP[4,3]  1
    cashProportion[1]  allocateAllCash  1
    cashProportion[1]  findWorstP[1,2]  2.2225185580299598e-02
    cashProportion[1]  findWorstP[1,3]  2.2225185580299598e-02
    cashProportion[1]  findWorstP[1,4]  2.2225185580299598e-02
    cashProportion[1]  findWorstP[2,1]  -0.0176678445229682
    cashProportion[1]  findWorstP[3,1]  -2.7074590496818735e-02
    cashProportion[1]  findWorstP[4,1]  -1.8152114721365041e-02
    cashProportion[2]  allocateAllCash  1
    cashProportion[2]  findWorstP[1,2]  -2.2225185580299598e-02
    cashProportion[2]  findWorstP[2,1]  0.0176678445229682
    cashProportion[2]  findWorstP[2,3]  0.0176678445229682
    cashProportion[2]  findWorstP[2,4]  0.0176678445229682
    cashProportion[2]  findWorstP[3,2]  -2.7074590496818735e-02
    cashProportion[2]  findWorstP[4,2]  -1.8152114721365041e-02
    cashProportion[3]  allocateAllCash  1
    cashProportion[3]  findWorstP[1,3]  -2.2225185580299598e-02
    cashProportion[3]  findWorstP[2,3]  -0.0176678445229682
    cashProportion[3]  findWorstP[3,1]  2.7074590496818735e-02
    cashProportion[3]  findWorstP[3,2]  2.7074590496818735e-02
    cashProportion[3]  findWorstP[3,4]  2.7074590496818735e-02
    cashProportion[3]  findWorstP[4,3]  -1.8152114721365041e-02
    cashProportion[4]  allocateAllCash  1
    cashProportion[4]  findWorstP[1,4]  -2.2225185580299598e-02
    cashProportion[4]  findWorstP[2,4]  -0.0176678445229682
    cashProportion[4]  findWorstP[3,4]  -2.7074590496818735e-02
    cashProportion[4]  findWorstP[4,1]  1.8152114721365041e-02
    cashProportion[4]  findWorstP[4,2]  1.8152114721365041e-02
    cashProportion[4]  findWorstP[4,3]  1.8152114721365041e-02
    MARKER    'MARKER'                 'INTORG'
    x[1,1]    allocateEach[1]  1
    x[1,1]    findWorstP[1,2]  1.9698181979819532e-01
    x[1,1]    findWorstP[1,3]  1.9698181979819532e-01
    x[1,1]    findWorstP[1,4]  1.9698181979819532e-01
    x[1,1]    findWorstP[2,1]  -1.5231448763250885e-01
    x[1,1]    findWorstP[3,1]  -2.2014349532963315e-01
    x[1,1]    findWorstP[4,1]  -1.0219640588128516e-01
    x[1,2]    allocateEach[2]  1
    x[1,2]    findWorstP[1,2]  0.149331021914033
    x[1,2]    findWorstP[1,3]  0.149331021914033
    x[1,2]    findWorstP[1,4]  0.149331021914033
    x[1,2]    findWorstP[2,1]  -1.3409893992932861e-01
    x[1,2]    findWorstP[3,1]  -2.0790578042507107e-01
    x[1,2]    findWorstP[4,1]  -0.149228535124342
    x[1,3]    allocateEach[3]  1
    x[1,3]    findWorstP[1,2]  1.2310530292927946e-01
    x[1,3]    findWorstP[1,3]  1.2310530292927946e-01
    x[1,3]    findWorstP[1,4]  1.2310530292927946e-01
    x[1,3]    findWorstP[2,1]  -7.1077738515901059e-02
    x[1,3]    findWorstP[3,1]  -2.0441315825098144e-02
    x[1,3]    findWorstP[4,1]  -1.4548919949174080e-01
    x[1,4]    allocateEach[4]  1
    x[1,4]    findWorstP[1,2]  3.8982975507845491e-02
    x[1,4]    findWorstP[1,3]  3.8982975507845491e-02
    x[1,4]    findWorstP[1,4]  3.8982975507845491e-02
    x[1,4]    findWorstP[2,1]  -1.5344522968197882e-01
    x[1,4]    findWorstP[3,1]  -5.8751861378096657e-03
    x[1,4]    findWorstP[4,1]  -1.3728444363768380e-01
    x[1,5]    allocateEach[5]  1
    x[1,5]    findWorstP[1,2]  0.0445614970885007
    x[1,5]    findWorstP[1,3]  0.0445614970885007
    x[1,5]    findWorstP[1,4]  0.0445614970885007
    x[1,5]    findWorstP[2,1]  -1.2194346289752651e-01
    x[1,5]    findWorstP[3,1]  -1.8370109652091512e-01
    x[1,5]    findWorstP[4,1]  -6.4095117081139963e-02
    x[1,6]    allocateEach[6]  1
    x[1,6]    findWorstP[1,2]  1.6208827843712495e-01
    x[1,6]    findWorstP[1,3]  1.6208827843712495e-01
    x[1,6]    findWorstP[1,4]  1.6208827843712495e-01
    x[1,6]    findWorstP[2,1]  -8.6731448763250882e-02
    x[1,6]    findWorstP[3,1]  -2.0915121158792471e-01
    x[1,6]    findWorstP[4,1]  -1.3361771646396806e-01
    x[1,7]    allocateEach[7]  1
    x[1,7]    findWorstP[1,2]  1.3832955505178468e-01
    x[1,7]    findWorstP[1,3]  1.3832955505178468e-01
    x[1,7]    findWorstP[1,4]  1.3832955505178468e-01
    x[1,7]    findWorstP[2,1]  -1.3823321554770318e-01
    x[1,7]    findWorstP[3,1]  -9.7468525788547439e-03
    x[1,7]    findWorstP[4,1]  -5.8177527681974955e-02
    x[1,8]    allocateEach[8]  1
    x[1,8]    findWorstP[1,2]  3.8116193270213809e-02
    x[1,8]    findWorstP[1,3]  3.8116193270213809e-02
    x[1,8]    findWorstP[1,4]  3.8116193270213809e-02
    x[1,8]    findWorstP[2,1]  -6.8922261484098940e-02
    x[1,8]    findWorstP[3,1]  -1.0458914308921076e-01
    x[1,8]    findWorstP[4,1]  -6.3241967689235790e-02
    x[1,9]    allocateEach[9]  1
    x[1,9]    findWorstP[1,2]  8.6278170422723038e-02
    x[1,9]    findWorstP[1,3]  8.6278170422723038e-02
    x[1,9]    findWorstP[1,4]  8.6278170422723038e-02
    x[1,9]    findWorstP[2,1]  -5.5565371024734987e-02
    x[1,9]    findWorstP[3,1]  -1.1371328008663870e-02
    x[1,9]    findWorstP[4,1]  -1.2851697222726446e-01
    x[2,1]    allocateEach[1]  1
    x[2,1]    findWorstP[1,2]  -1.9698181979819532e-01
    x[2,1]    findWorstP[2,1]  1.5231448763250885e-01
    x[2,1]    findWorstP[2,3]  1.5231448763250885e-01
    x[2,1]    findWorstP[2,4]  1.5231448763250885e-01
    x[2,1]    findWorstP[3,2]  -2.2014349532963315e-01
    x[2,1]    findWorstP[4,2]  -1.0219640588128516e-01
    x[2,2]    allocateEach[2]  1
    x[2,2]    findWorstP[1,2]  -0.149331021914033
    x[2,2]    findWorstP[2,1]  1.3409893992932861e-01
    x[2,2]    findWorstP[2,3]  1.3409893992932861e-01
    x[2,2]    findWorstP[2,4]  1.3409893992932861e-01
    x[2,2]    findWorstP[3,2]  -2.0790578042507107e-01
    x[2,2]    findWorstP[4,2]  -0.149228535124342
    x[2,3]    allocateEach[3]  1
    x[2,3]    findWorstP[1,2]  -1.2310530292927946e-01
    x[2,3]    findWorstP[2,1]  7.1077738515901059e-02
    x[2,3]    findWorstP[2,3]  7.1077738515901059e-02
    x[2,3]    findWorstP[2,4]  7.1077738515901059e-02
    x[2,3]    findWorstP[3,2]  -2.0441315825098144e-02
    x[2,3]    findWorstP[4,2]  -1.4548919949174080e-01
    x[2,4]    allocateEach[4]  1
    x[2,4]    findWorstP[1,2]  -3.8982975507845491e-02
    x[2,4]    findWorstP[2,1]  1.5344522968197882e-01
    x[2,4]    findWorstP[2,3]  1.5344522968197882e-01
    x[2,4]    findWorstP[2,4]  1.5344522968197882e-01
    x[2,4]    findWorstP[3,2]  -5.8751861378096657e-03
    x[2,4]    findWorstP[4,2]  -1.3728444363768380e-01
    x[2,5]    allocateEach[5]  1
    x[2,5]    findWorstP[1,2]  -0.0445614970885007
    x[2,5]    findWorstP[2,1]  1.2194346289752651e-01
    x[2,5]    findWorstP[2,3]  1.2194346289752651e-01
    x[2,5]    findWorstP[2,4]  1.2194346289752651e-01
    x[2,5]    findWorstP[3,2]  -1.8370109652091512e-01
    x[2,5]    findWorstP[4,2]  -6.4095117081139963e-02
    x[2,6]    allocateEach[6]  1
    x[2,6]    findWorstP[1,2]  -1.6208827843712495e-01
    x[2,6]    findWorstP[2,1]  8.6731448763250882e-02
    x[2,6]    findWorstP[2,3]  8.6731448763250882e-02
    x[2,6]    findWorstP[2,4]  8.6731448763250882e-02
    x[2,6]    findWorstP[3,2]  -2.0915121158792471e-01
    x[2,6]    findWorstP[4,2]  -1.3361771646396806e-01
    x[2,7]    allocateEach[7]  1
    x[2,7]    findWorstP[1,2]  -1.3832955505178468e-01
    x[2,7]    findWorstP[2,1]  1.3823321554770318e-01
    x[2,7]    findWorstP[2,3]  1.3823321554770318e-01
    x[2,7]    findWorstP[2,4]  1.3823321554770318e-01
    x[2,7]    findWorstP[3,2]  -9.7468525788547439e-03
    x[2,7]    findWorstP[4,2]  -5.8177527681974955e-02
    x[2,8]    allocateEach[8]  1
    x[2,8]    findWorstP[1,2]  -3.8116193270213809e-02
    x[2,8]    findWorstP[2,1]  6.8922261484098940e-02
    x[2,8]    findWorstP[2,3]  6.8922261484098940e-02
    x[2,8]    findWorstP[2,4]  6.8922261484098940e-02
    x[2,8]    findWorstP[3,2]  -1.0458914308921076e-01
    x[2,8]    findWorstP[4,2]  -6.3241967689235790e-02
    x[2,9]    allocateEach[9]  1
    x[2,9]    findWorstP[1,2]  -8.6278170422723038e-02
    x[2,9]    findWorstP[2,1]  5.5565371024734987e-02
    x[2,9]    findWorstP[2,3]  5.5565371024734987e-02
    x[2,9]    findWorstP[2,4]  5.5565371024734987e-02
    x[2,9]    findWorstP[3,2]  -1.1371328008663870e-02
    x[2,9]    findWorstP[4,2]  -1.2851697222726446e-01
    x[3,1]    allocateEach[1]  1
    x[3,1]    findWorstP[1,3]  -1.9698181979819532e-01
    x[3,1]    findWorstP[2,3]  -1.5231448763250885e-01
    x[3,1]    findWorstP[3,1]  2.2014349532963315e-01
    x[3,1]    findWorstP[3,2]  2.2014349532963315e-01
    x[3,1]    findWorstP[3,4]  2.2014349532963315e-01
    x[3,1]    findWorstP[4,3]  -1.0219640588128516e-01
    x[3,2]    allocateEach[2]  1
    x[3,2]    findWorstP[1,3]  -0.149331021914033
    x[3,2]    findWorstP[2,3]  -1.3409893992932861e-01
    x[3,2]    findWorstP[3,1]  2.0790578042507107e-01
    x[3,2]    findWorstP[3,2]  2.0790578042507107e-01
    x[3,2]    findWorstP[3,4]  2.0790578042507107e-01
    x[3,2]    findWorstP[4,3]  -0.149228535124342
    x[3,3]    allocateEach[3]  1
    x[3,3]    findWorstP[1,3]  -1.2310530292927946e-01
    x[3,3]    findWorstP[2,3]  -7.1077738515901059e-02
    x[3,3]    findWorstP[3,1]  2.0441315825098144e-02
    x[3,3]    findWorstP[3,2]  2.0441315825098144e-02
    x[3,3]    findWorstP[3,4]  2.0441315825098144e-02
    x[3,3]    findWorstP[4,3]  -1.4548919949174080e-01
    x[3,4]    allocateEach[4]  1
    x[3,4]    findWorstP[1,3]  -3.8982975507845491e-02
    x[3,4]    findWorstP[2,3]  -1.5344522968197882e-01
    x[3,4]    findWorstP[3,1]  5.8751861378096657e-03
    x[3,4]    findWorstP[3,2]  5.8751861378096657e-03
    x[3,4]    findWorstP[3,4]  5.8751861378096657e-03
    x[3,4]    findWorstP[4,3]  -1.3728444363768380e-01
    x[3,5]    allocateEach[5]  1
    x[3,5]    findWorstP[1,3]  -0.0445614970885007
    x[3,5]    findWorstP[2,3]  -1.2194346289752651e-01
    x[3,5]    findWorstP[3,1]  1.8370109652091512e-01
    x[3,5]    findWorstP[3,2]  1.8370109652091512e-01
    x[3,5]    findWorstP[3,4]  1.8370109652091512e-01
    x[3,5]    findWorstP[4,3]  -6.4095117081139963e-02
    x[3,6]    allocateEach[6]  1
    x[3,6]    findWorstP[1,3]  -1.6208827843712495e-01
    x[3,6]    findWorstP[2,3]  -8.6731448763250882e-02
    x[3,6]    findWorstP[3,1]  2.0915121158792471e-01
    x[3,6]    findWorstP[3,2]  2.0915121158792471e-01
    x[3,6]    findWorstP[3,4]  2.0915121158792471e-01
    x[3,6]    findWorstP[4,3]  -1.3361771646396806e-01
    x[3,7]    allocateEach[7]  1
    x[3,7]    findWorstP[1,3]  -1.3832955505178468e-01
    x[3,7]    findWorstP[2,3]  -1.3823321554770318e-01
    x[3,7]    findWorstP[3,1]  9.7468525788547439e-03
    x[3,7]    findWorstP[3,2]  9.7468525788547439e-03
    x[3,7]    findWorstP[3,4]  9.7468525788547439e-03
    x[3,7]    findWorstP[4,3]  -5.8177527681974955e-02
    x[3,8]    allocateEach[8]  1
    x[3,8]    findWorstP[1,3]  -3.8116193270213809e-02
    x[3,8]    findWorstP[2,3]  -6.8922261484098940e-02
    x[3,8]    findWorstP[3,1]  1.0458914308921076e-01
    x[3,8]    findWorstP[3,2]  1.0458914308921076e-01
    x[3,8]    findWorstP[3,4]  1.0458914308921076e-01
    x[3,8]    findWorstP[4,3]  -6.3241967689235790e-02
    x[3,9]    allocateEach[9]  1
    x[3,9]    findWorstP[1,3]  -8.6278170422723038e-02
    x[3,9]    findWorstP[2,3]  -5.5565371024734987e-02
    x[3,9]    findWorstP[3,1]  1.1371328008663870e-02
    x[3,9]    findWorstP[3,2]  1.1371328008663870e-02
    x[3,9]    findWorstP[3,4]  1.1371328008663870e-02
    x[3,9]    findWorstP[4,3]  -1.2851697222726446e-01
    x[4,1]    allocateEach[1]  1
    x[4,1]    findWorstP[1,4]  -1.9698181979819532e-01
    x[4,1]    findWorstP[2,4]  -1.5231448763250885e-01
    x[4,1]    findWorstP[3,4]  -2.2014349532963315e-01
    x[4,1]    findWorstP[4,1]  1.0219640588128516e-01
    x[4,1]    findWorstP[4,2]  1.0219640588128516e-01
    x[4,1]    findWorstP[4,3]  1.0219640588128516e-01
    x[4,2]    allocateEach[2]  1
    x[4,2]    findWorstP[1,4]  -0.149331021914033
    x[4,2]    findWorstP[2,4]  -1.3409893992932861e-01
    x[4,2]    findWorstP[3,4]  -2.0790578042507107e-01
    x[4,2]    findWorstP[4,1]  0.149228535124342
    x[4,2]    findWorstP[4,2]  0.149228535124342
    x[4,2]    findWorstP[4,3]  0.149228535124342
    x[4,3]    allocateEach[3]  1
    x[4,3]    findWorstP[1,4]  -1.2310530292927946e-01
    x[4,3]    findWorstP[2,4]  -7.1077738515901059e-02
    x[4,3]    findWorstP[3,4]  -2.0441315825098144e-02
    x[4,3]    findWorstP[4,1]  1.4548919949174080e-01
    x[4,3]    findWorstP[4,2]  1.4548919949174080e-01
    x[4,3]    findWorstP[4,3]  1.4548919949174080e-01
    x[4,4]    allocateEach[4]  1
    x[4,4]    findWorstP[1,4]  -3.8982975507845491e-02
    x[4,4]    findWorstP[2,4]  -1.5344522968197882e-01
    x[4,4]    findWorstP[3,4]  -5.8751861378096657e-03
    x[4,4]    findWorstP[4,1]  1.3728444363768380e-01
    x[4,4]    findWorstP[4,2]  1.3728444363768380e-01
    x[4,4]    findWorstP[4,3]  1.3728444363768380e-01
    x[4,5]    allocateEach[5]  1
    x[4,5]    findWorstP[1,4]  -0.0445614970885007
    x[4,5]    findWorstP[2,4]  -1.2194346289752651e-01
    x[4,5]    findWorstP[3,4]  -1.8370109652091512e-01
    x[4,5]    findWorstP[4,1]  6.4095117081139963e-02
    x[4,5]    findWorstP[4,2]  6.4095117081139963e-02
    x[4,5]    findWorstP[4,3]  6.4095117081139963e-02
    x[4,6]    allocateEach[6]  1
    x[4,6]    findWorstP[1,4]  -1.6208827843712495e-01
    x[4,6]    findWorstP[2,4]  -8.6731448763250882e-02
    x[4,6]    findWorstP[3,4]  -2.0915121158792471e-01
    x[4,6]    findWorstP[4,1]  1.3361771646396806e-01
    x[4,6]    findWorstP[4,2]  1.3361771646396806e-01
    x[4,6]    findWorstP[4,3]  1.3361771646396806e-01
    x[4,7]    allocateEach[7]  1
    x[4,7]    findWorstP[1,4]  -1.3832955505178468e-01
    x[4,7]    findWorstP[2,4]  -1.3823321554770318e-01
    x[4,7]    findWorstP[3,4]  -9.7468525788547439e-03
    x[4,7]    findWorstP[4,1]  5.8177527681974955e-02
    x[4,7]    findWorstP[4,2]  5.8177527681974955e-02
    x[4,7]    findWorstP[4,3]  5.8177527681974955e-02
    x[4,8]    allocateEach[8]  1
    x[4,8]    findWorstP[1,4]  -3.8116193270213809e-02
    x[4,8]    findWorstP[2,4]  -6.8922261484098940e-02
    x[4,8]    findWorstP[3,4]  -1.0458914308921076e-01
    x[4,8]    findWorstP[4,1]  6.3241967689235790e-02
    x[4,8]    findWorstP[4,2]  6.3241967689235790e-02
    x[4,8]    findWorstP[4,3]  6.3241967689235790e-02
    x[4,9]    allocateEach[9]  1
    x[4,9]    findWorstP[1,4]  -8.6278170422723038e-02
    x[4,9]    findWorstP[2,4]  -5.5565371024734987e-02
    x[4,9]    findWorstP[3,4]  -1.1371328008663870e-02
    x[4,9]    findWorstP[4,1]  1.2851697222726446e-01
    x[4,9]    findWorstP[4,2]  1.2851697222726446e-01
    x[4,9]    findWorstP[4,3]  1.2851697222726446e-01
    MARKER    'MARKER'                 'INTEND'
RHS
    RHS1      allocateEach[1]  1
    RHS1      allocateEach[2]  1
    RHS1      allocateEach[3]  1
    RHS1      allocateEach[4]  1
    RHS1      allocateEach[5]  1
    RHS1      allocateEach[6]  1
    RHS1      allocateEach[7]  1
    RHS1      allocateEach[8]  1
    RHS1      allocateEach[9]  1
    RHS1      allocateAllCash  1
BOUNDS
 UP BND1      z         1
 MI BND1      cashProportion[1]
 UP BND1      cashProportion[1]  1
 MI BND1      cashProportion[2]
 UP BND1      cashProportion[2]  1
 MI BND1      cashProportion[3]
 UP BND1      cashProportion[3]  1
 MI BND1      cashProportion[4]
 UP BND1      cashProportion[4]  1
 BV BND1      x[1,1]  
 BV BND1      x[1,2]  
 BV BND1      x[1,3]  
 BV BND1      x[1,4]  
 BV BND1      x[1,5]  
 BV BND1      x[1,6]  
 BV BND1      x[1,7]  
 BV BND1      x[1,8]  
 BV BND1      x[1,9]  
 BV BND1      x[2,1]  
 BV BND1      x[2,2]  
 BV BND1      x[2,3]  
 BV BND1      x[2,4]  
 BV BND1      x[2,5]  
 BV BND1      x[2,6]  
 BV BND1      x[2,7]  
 BV BND1      x[2,8]  
 BV BND1      x[2,9]  
 BV BND1      x[3,1]  
 BV BND1      x[3,2]  
 BV BND1      x[3,3]  
 BV BND1      x[3,4]  
 BV BND1      x[3,5]  
 BV BND1      x[3,6]  
 BV BND1      x[3,7]  
 BV BND1      x[3,8]  
 BV BND1      x[3,9]  
 BV BND1      x[4,1]  
 BV BND1      x[4,2]  
 BV BND1      x[4,3]  
 BV BND1      x[4,4]  
 BV BND1      x[4,5]  
 BV BND1      x[4,6]  
 BV BND1      x[4,7]  
 BV BND1      x[4,8]  
 BV BND1      x[4,9]  
ENDATA
